238 300 166 261 47 133 17 112 158 23 101 92 152 5 239 235 85 292 263 122 156 272 66 100 24 18 247 242 43 63 189 39 100 106 51 147 239 67 10 148 142 162 291 45 166 229 280 2 272 242 123 180 213 188 279 288 257 225 229 299 40 169 89 139 27 191 285 265 10 46 164 151 207 154 195 125 83 226 126 106 167 249 285 131 188 264 118 197 240 99 247 279 267 88 170 293 278 154 9 287 252 224 189 210 78 136 34 212 61 212 17 228 160 2 110 99 17 228 295 8 26 294 39 44 81 208 89 58 113 149 97 64 73 285 26 150 172 111 61 233 22 129 212 233 182 21 32 198 300 78 258 25 71 296 121 151 255 209 261 67 109 57 183 181 93 208 82 265 18 194 249 40 23 160 24 204 232 55 102 232 185 111 8 255 158 180 158 112 140 118 230 249 226 112 181 18 71 263 34 141 156 282 232 178 193 255 134 125 62 235 108 246 97 167 200 254 47 109 117 186 226 46 186 151 210 67 221 280 81 254 120 236 236 103 166 180 58 299 56 119 